============================[ Problem Statistics ]=============================|                                                                             ||  Number of variables:          4242                                         ||  Number of clauses:           10357                                         ||  Parse time:                   0.74 s                                       ||                                                                             |============================[ Search Statistics ]==============================| Conflicts |          ORIGINAL         |          LEARNT          | Progress ||           |    Vars  Clauses Literals |    Limit  Clauses Lit/Cl |          |===============================================================================|       100 |    1591     6562  1187543 |     2406      100     53 | 62.501 % ||       250 |    1591     6562  1187543 |     2646      250     75 | 62.495 % |===============================================================================restarts              : 4conflicts             : 403            (357 /sec)decisions             : 765            (0.00 % random) (677 /sec)propagations          : 13649          (12079 /sec)conflict literals     : 33472          (94.54 % deleted)CPU time              : 1.13 sSATISFIABLE